db/data/7248310342475826640627126289805316804.z3.out
sat
-------------------
11.600403551
